NAME : single
TYPE : ATSP
DIMENSION : 9
EDGE_WEIGHT_TYPE : EXPLICIT
EDGE_WEIGHT_FORMAT : FULL_MATRIX
EDGE_WEIGHT_SECTION
0 354 475 944 954 928 707 399 94 
0 0 50000 633 690 661 541 195 173 
0 50000 0 392 597 569 403 229 255 
0 633 392 0 452 426 354 609 687 
0 690 597 452 0 0 230 569 621 
0 661 569 426 171 0 171 529 591 
0 541 403 354 248 223 0 308 354 
0 195 229 609 569 529 308 0 149 
0 173 255 687 621 591 354 149 0 
